# SCIP version 3.0.2.1

detectors/hrcgpartition/enabled = FALSE
detectors/hcgpartition/enabled = FALSE
detectors/hrgpartition/enabled = FALSE
detectors/stairheur/enabled = FALSE
detectors/isomorph/enabled = TRUE
detectors/compgreedily/enabled = FALSE
detectors/connected/enabled = FALSE
detectors/mastersetpack/enabled = FALSE
detectors/mastersetpart/enabled = FALSE
detectors/mastersetcover/enabled = FALSE
detectors/staircase/enabled = FALSE
detectors/constype/enabled = FALSE


limits/time = 10